Traveling Salesman Problem/TSP_generados/Aleatorio1621103347_11.tsp
NAME: Aleatorio1621103347_11.tsp
COMMENT: Randomly generated scenario
TYPE: TSP
DIMENSION: 11
EDGE_WEIGHT_TYPE: ATT
NODE_COORD_SECTION
1 33.39 3.56
2 12.43 13.47
3 8.93 7.72
4 5.89 17.44
5 26.64 1.11
6 24.73 37.54
7 17.58 26.69
8 21.59 8.11
9 9.94 17.02
10 12.28 27.12
11 8.3 4.08
