Traveling Salesman Problem/TSP_generados/Aleatorio1621103347_11.opt.tour
NAME: Aleatorio1621103347_11.opt.tour
COMMENT: Optimal solution for Aleatorio1621103347_11 (113.50995253832906)
TYPE: TOUR
DIMENSION: 11
TOUR_SECTION
1 5 8 11 3 2 9 4 10 7 6
-1
EOF
